1 10
2 7
3 4
4 1
5 10
6 9
7 5
8 7
9 8
10 6
11 2
12 6
13 6
14 4
15 6
16 6
17 1
18 10
19 5
20 8
21 2
22 3
23 10
24 1
25 1
26 6
27 10
28 8
29 8
30 6
31 3
32 5
33 9
34 5
35 10
36 6
37 7
38 6
39 1
40 2
41 10
42 1
43 2
44 6
45 8
46 1
47 1
48 5
49 10
50 8
51 2
52 6
53 8
54 10
55 3
56 5
57 4
58 3
59 1
60 7
61 2
62 10
63 1
64 8
65 1
66 10
67 10
68 8
69 9
70 10
71 1
72 3
73 6
74 7
75 10
76 5
77 2
78 5
79 8
80 10
81 4
82 8
83 5
84 10
85 3
86 3
87 2
88 6
89 8
90 9
91 3
92 10
93 3
94 7
95 4
96 5
97 5
98 8
99 1
100 4
101 4
102 5
103 4
104 6
105 6
106 1
107 1
108 4
109 6
110 1
111 5
112 7
113 1
114 1
115 9
116 6
117 10
118 2
119 4
120 5
121 9
122 8
123 1
124 3
125 3
126 4
127 2
128 1
129 8
130 1
131 2
132 9
133 1
134 3
135 4
136 3
137 10
138 10
139 3
140 6
141 10
142 8
143 2
144 1
145 8
146 1
147 8
148 10
149 8
150 4
151 5
152 2
153 3
154 10
155 10
156 8
157 9
158 1
159 10
160 7
161 3
162 5
163 2
164 10
165 1
166 9
167 1
168 10
169 1
170 10
171 7
172 10
173 1
174 2
175 4
176 2
177 6
178 5
179 10
180 8
181 2
182 2
183 6
184 3
